43122.0
1789
2 3 5 7 8 9 11 12 13 14 15 16 17 19 20 21 22 23 27 28 29 30 31 32 33 35 36 37 38 39 40 41 43 45 46 47 49 50 52 53 54 55 56 57 58 61 62 64 65 66 67 68 69 72 73 75 76 77 78 80 82 83 85 87 88 89 90 93 95 96 97 98 99 